c CNF formula generated by generate_input.py
c Number of variables: 50
c Number of clauses: 50
c Clause length: random between 1 and 4
p cnf 50 50
37 0
25 -9 20 -8 0
-23 -12 -18 19 0
14 5 -36 18 0
39 3 0
-35 0
10 19 -27 0
-38 6 31 -17 0
-38 45 -11 0
2 -24 0
5 38 25 0
26 12 -31 0
-31 0
-14 48 -36 0
28 -23 0
7 47 28 0
-22 -19 49 40 0
-7 48 0
23 22 0
46 0
48 -24 26 -25 0
-24 0
38 -8 0
-42 -25 0
24 0
-16 0
35 -25 -31 0
24 0
-28 -30 12 0
-37 0
30 0
-44 -42 15 -18 0
27 0
32 6 50 -25 0
17 -49 -23 31 0
-41 0
-29 -39 -4 0
46 -49 -30 0
-2 33 0
27 -28 0
35 46 0
26 16 0
-25 -39 0
2 5 48 33 0
-6 -25 -40 9 0
4 -18 -25 -15 0
-33 -38 0
-44 26 49 0
-45 -10 -31 0
-4 -25 0
